c turning on binary mode checking
c parsing input formula with 259840 variables and 1039919 clauses
c finished parsing, read 30016666 bytes from proof file
c detected empty clause; start verification via backward checking
c 35891 of 1039919 clauses in core                            
c 55995 of 690834 lemmas in core using 519651 resolution steps
c 0 RAT lemmas in core; 5966 redundant literals in core lemmas
s VERIFIED
c verification time: 3.608 seconds
